NAME: test1806
TYPE: TSP
DIMENSION: 11
EDGE_WEIGHT_TYPE: EUC_2D
NODE_COORD_SECTION
1 28.656312405065854 3.600349272579939
2 82.12968336997369 95.89178541853059
3 56.600733667067516 83.11142926883609
4 61.07764326208927 72.99240752741262
5 59.473230788477004 7.144560217285456
6 39.791122089939435 9.815043873629925
7 55.76350809420772 16.08542922763482
8 3.227137656439205 31.427270483131842
9 67.75574716864408 40.49737991820038
10 36.64363135281985 22.938455167158935
11 87.01996677644583 49.16737082708885
EOF
